10 1 6 2 0 -1 1 2 5 -1 
-1 5 3 5 4 0 8 8 9 -1 
3 1 1 5 -1 4 -1 6 1 -1 
10 2 1 3 -1 1 -1 0 6 -1 
10 6 1 -1 -1 6 10 3 9 -1 
7 7 -1 7 3 2 4 10 10 -1 
3 10 -1 9 -1 6 5 10 0 -1 
5 2 1 3 -1 9 2 10 7 -1 
9 3 3 6 4 2 9 10 4 -1 
6 9 3 1 10 9 5 3 3 -1 
3 2 3 7 10 8 2 0 1 -1 
9 9 4 7 7 8 3 8 3 -1 
6 8 3 3 1 1 -1 -1 8 -1 
5 8 0 5 0 10 5 2 0 -1 
1 -1 8 2 0 -1 6 5 3 -1 
9 8 4 3 8 5 10 6 0 -1 
2 10 4 6 -1 5 3 -1 7 -1 
8 1 4 1 4 -1 2 5 9 -1 
8 1 3 1 4 3 0 10 2 -1 
1 1 1 -1 7 3 6 9 5 -1 
